p tdp 16 56
1 2
1 5
1 6
1 7
1 9
1 13
1 15
2 3
2 6
2 9
2 11
2 14
2 15
2 16
3 6
3 8
3 10
3 12
3 14
3 15
3 16
4 5
4 6
4 8
4 10
4 12
5 7
5 8
5 10
5 11
5 12
5 14
6 7
6 8
6 10
6 12
6 13
6 16
7 10
7 14
8 10
8 13
8 14
8 16
9 10
9 12
10 11
11 12
11 13
11 15
12 13
12 14
12 15
13 14
13 16
15 16
